994,305
708,459
891,406
880,342
417,770
681,586
1161,406
838,-79
898,833
611,850
601,446
766,433
533,862
488,672
607,634
655,393
342,745
926,-75
504,434
600,566
548,338
718,292
681,856
735,512
387,555
663,349
